&CONTROL
  calculation = 'scf'
  prefix = 'silicon'
  pseudo_dir = './pseudo'
  outdir = './out'
/

&SYSTEM
  ibrav = 2
  nat = 2
  ntyp = 1
  ecutwfc = 30.0
  celldm(1) = 10.26
  occupations = 'smearing'
  smearing = 'gaussian'
  degauss = 0.02
/

&ELECTRONS
  mixing_beta = 0.7
  conv_thr = 1.0e-6
/

ATOMIC_SPECIES
  Si  28.086  Si.pbe-n-rrkjus_psl.1.0.0.UPF

ATOMIC_POSITIONS alat
  Si  0.00  0.00  0.00
  Si  0.25  0.25  0.25

K_POINTS automatic
  8 8 8 0 0 0
