&CONTROL
  calculation = 'relax'
  prefix = 'water'
  pseudo_dir = './pseudo'
  outdir = './out'
/

&SYSTEM
  ibrav = 0
  nat = 3
  ntyp = 2
  ecutwfc = 40.0
  ecutrho = 320.0
  A = 12.0
  B = 12.0
  C = 12.0
  occupations = 'smearing'
  smearing = 'gaussian'
  degauss = 0.02
/

&ELECTRONS
  mixing_beta = 0.7
  conv_thr = 1.0e-6
/

&IONS
/

ATOMIC_SPECIES
  O  15.999  O.pbe-n-kjpaw_psl.1.0.0.UPF
  H  1.008   H.pbe-rrkjus_psl.1.0.0.UPF

ATOMIC_POSITIONS angstrom
  O  6.00  6.00  6.00
  H  6.76  6.00  6.59
  H  5.24  6.00  6.59

K_POINTS gamma
